Version identifier: 22.1.1.0 | 2022-11-28 | 9160aff4d
CPXPARAM_Read_DataCheck                          1
CPXPARAM_MIP_Strategy_NodeSelect                 0
CPXPARAM_MIP_Strategy_HeuristicFreq              1
CPXPARAM_TimeLimit                               60
Tried aggregator 2 times.
MIP Presolve eliminated 76 rows and 161 columns.
MIP Presolve added 32 rows and 0 columns.
MIP Presolve modified 2938 coefficients.
Aggregator did 8 substitutions.
Reduced MIP has 690 rows, 848 columns, and 4076 nonzeros.
Reduced MIP has 824 binaries, 0 generals, 0 SOSs, and 0 indicators.
Presolve time = 0.00 sec. (5.92 ticks)
Found incumbent of value 2116.000000 after 0.01 sec. (9.72 ticks)
Probing time = 0.00 sec. (2.74 ticks)
Tried aggregator 1 time.
Detecting symmetries...
Reduced MIP has 690 rows, 848 columns, and 4076 nonzeros.
Reduced MIP has 824 binaries, 0 generals, 0 SOSs, and 0 indicators.
Presolve time = 0.00 sec. (2.64 ticks)
Probing time = 0.00 sec. (2.72 ticks)
Clique table members: 2437.
MIP emphasis: balance optimality and feasibility.
MIP search method: dynamic search.
Parallel mode: deterministic, using up to 12 threads.
Root relaxation solution time = 0.00 sec. (2.34 ticks)

        Nodes                                         Cuts/
   Node  Left     Objective  IInf  Best Integer    Best Bound    ItCnt     Gap

*     0+    0                         2116.0000        0.0000           100.00%
*     0+    0                         1674.0000        0.0000           100.00%
      0     0      213.4083    39     1674.0000      213.4083       89   87.25%
      0     0      226.3778    37     1674.0000      Cuts: 51      143   86.48%
      0     0      228.0000    41     1674.0000      Cuts: 28      172   86.38%
      0     0      229.3500    43     1674.0000      Cuts: 21      205   86.30%
      0     0      229.3500    41     1674.0000      Cuts: 20      219   86.30%
      0     0      229.3500    44     1674.0000      Cuts: 11      229   86.30%
Detecting symmetries...
*     0+    0                          379.0000      229.3500            39.49%
*     0+    0                          341.0000      229.3500            32.74%
*     0+    0                          302.0000      229.4348            24.03%
      0     0  -1.00000e+75     0      302.0000      229.4348      229   24.03%
Detecting symmetries...

Repeating presolve.
Tried aggregator 1 time.
MIP Presolve eliminated 240 rows and 263 columns.
Reduced MIP has 450 rows, 585 columns, and 2544 nonzeros.
Reduced MIP has 561 binaries, 0 generals, 0 SOSs, and 0 indicators.
Presolve time = 0.00 sec. (1.52 ticks)
Probing time = 0.00 sec. (2.28 ticks)
Cover probing fixed 0 vars, tightened 7 bounds.
Tried aggregator 1 time.
Detecting symmetries...
MIP Presolve modified 162 coefficients.
Reduced MIP has 450 rows, 585 columns, and 2544 nonzeros.
Reduced MIP has 561 binaries, 0 generals, 0 SOSs, and 0 indicators.
Presolve time = 0.00 sec. (1.75 ticks)
Represolve time = 0.01 sec. (7.66 ticks)
Probing time = 0.00 sec. (2.25 ticks)
Clique table members: 1598.
MIP emphasis: balance optimality and feasibility.
MIP search method: dynamic search.
Parallel mode: deterministic, using up to 12 threads.
Root relaxation solution time = 0.00 sec. (4.14 ticks)

        Nodes                                         Cuts/
   Node  Left     Objective  IInf  Best Integer    Best Bound    ItCnt     Gap

*     0+    0                          302.0000      229.4353            24.03%
      0     0      229.3500    43      302.0000      229.4353      405   24.03%
      0     0      229.4563    30      302.0000      Cuts: 38      459   24.02%
      0     0      229.4571    28      302.0000      Cuts: 26      475   24.02%
      0     0      229.5600    40      302.0000      Cuts: 15      508   23.99%
      0     0      229.7555    39      302.0000      Cuts: 20      548   23.92%
      0     0      230.5434    55      302.0000      Cuts: 34      614   23.66%
      0     0      231.5000    28      302.0000      Cuts: 63      658   23.34%
      0     0      232.0925    52      302.0000      Cuts: 11      725   23.15%
      0     0      233.2029    75      302.0000      Cuts: 76      771   22.78%
      0     0      233.5000    43      302.0000      Cuts: 54      795   22.68%
*     0+    0                          286.0000      233.5000            18.36%
      0     0      233.6968    61      286.0000      Cuts: 17      818   18.29%
      0     0      234.3333    82      286.0000      Cuts: 48      873   18.07%
      0     0      234.7000    77      286.0000      Cuts: 30      900   17.94%
      0     0      234.7564    80      286.0000      Cuts: 10      918   17.92%
      0     0      234.7857    76      286.0000      Cuts: 10      931   17.91%
      0     0      235.0204    66      286.0000   ZeroHalf: 1      950   17.83%
      0     0      235.1321    79      286.0000      Cuts: 50      984   17.79%
      0     0      235.1579    71      286.0000      Cuts: 24     1003   17.78%
*     0+    0                          256.0000      235.1579             8.14%
*     0+    0                          243.0000      235.1579             3.23%
      0     0        cutoff            243.0000      243.0000     1003    0.00%
Elapsed time = 0.26 sec. (214.76 ticks, tree = 0.01 MB, solutions = 8)

GUB cover cuts applied:  2
Clique cuts applied:  13
Cover cuts applied:  40
Implied bound cuts applied:  11
Mixed integer rounding cuts applied:  43
Zero-half cuts applied:  14
Lift and project cuts applied:  3
Gomory fractional cuts applied:  10

Root node processing (before b&c):
  Real time             =    0.26 sec. (214.85 ticks)
Parallel b&c, 12 threads:
  Real time             =    0.00 sec. (0.00 ticks)
  Sync time (average)   =    0.00 sec.
  Wait time (average)   =    0.00 sec.
                          ------------
Total (root+branch&cut) =    0.26 sec. (214.85 ticks)
